38310 39756 
37429 40202 
35743 40638 
36402 40445 
36655 40360 
38435 39687 
37817 40011 
36175 40531 
36540 40398 
36650 40364 
35605 40685 
36037 40578 
39073 39321 
38137 39838 
38531 39683 
38057 39885 
37627 40045 
38596 39642 
38122 39844 
37082 40257 
36255 40484 
36512 40411 
36944 40304 
39325 39163 
39683 38864 
39218 39247 
38820 39504 
37147 40216 
34876 40750 
39935 38706 
39828 38790 
34816 40793 
34967 40705 
